c colouring generated by benchmark framework
p edge 96 1368
v 1 13
v 2 6
v 3 12
v 4 9
v 5 5
v 6 14
v 7 10
v 8 0
v 9 2
v 10 11
v 11 3
v 12 1
v 13 3
v 14 1
v 15 8
v 16 7
v 17 4
v 18 12
v 19 2
v 20 5
v 21 6
v 22 0
v 23 9
v 24 13
v 25 14
v 26 4
v 27 6
v 28 2
v 29 0
v 30 11
v 31 7
v 32 1
v 33 8
v 34 3
v 35 10
v 36 5
v 37 12
v 38 10
v 39 0
v 40 4
v 41 1
v 42 8
v 43 3
v 44 14
v 45 5
v 46 7
v 47 2
v 48 6
v 49 11
v 50 7
v 51 2
v 52 5
v 53 3
v 54 10
v 55 1
v 56 8
v 57 0
v 58 6
v 59 4
v 60 9
v 61 9
v 62 5
v 63 4
v 64 6
v 65 13
v 66 2
v 67 0
v 68 3
v 69 1
v 70 8
v 71 7
v 72 11
v 73 7
v 74 3
v 75 1
v 76 0
v 77 9
v 78 6
v 79 5
v 80 4
v 81 11
v 82 2
v 83 13
v 84 8
v 85 8
v 86 0
v 87 5
v 88 10
v 89 2
v 90 1
v 91 12
v 92 7
v 93 3
v 94 9
v 95 6
v 96 4
